40
    98    77     8    38    79    28     4    57    63    57     7    96     2    48    18     3    72    39    17    31    80    21    60    33    60    38    84    69    73    88     2     1    11    22     6    92    92    42    66    10
    10     9     5     9     3    10     8     2     5     5     6    10     5     2     4     9     4     1     2     4     7     1     3     4     2     6     3     5     2     5     2     8    10     5     2     2     8     7     2     8
   754   682   557   827   647   880   631   783   875   806   619   648   631   540   590   658   876   696   739   570   738   886   724   548   870   882   619   789   553   860   606   622   709   771   861   640   646   598   890   722
